Alloy of Fe Ni Cr
 1 
3.6 0 0 
0 3.6 0 
0 0 3.6 
 Fe Ni Cr
2 1 1
Cartesian
0 0 0 Fe Ni Cr
1.8 1.8 0 Fe Ni Cr  
1.8 0 1.8 Fe Ni Cr
0 1.8 1.8 Fe Ni Cr
