NiMnIn
1.0
5.2 0  0
0  5.2  0
0  0  7.2
Ni Mn
8 8
direct
0.0              0.0              0.0
0.0              0.0              0.5
0.0              0.5              0.0
0.5              0.0              0.0
0.0              0.5              0.5
0.5              0.0              0.5
0.5              0.5              0.0
0.5              0.5              0.5
0.25             0.25             0.25
0.75             0.25             0.25
0.25             0.25             0.75
0.75             0.25             0.75
0.25             0.75             0.25
0.75             0.75             0.25
0.25             0.75             0.75
0.75             0.75             0.75