FeNiCr
1.0
   0.0000000000000000    0.0000000000000000    3.6000000000000001
   0.0000000000000000    3.6000000000000001    0.0000000000000000
  -3.6000000000000001    0.0000000000000000    0.0000000000000000
Fe Ni Cr
2 1 1
direct
   0.5000000000000000    0.0000000000000000    0.5000000000000000 Fe Ni Cr
   0.0000000000000000    0.5000000000000000    0.5000000000000000 Fe Ni Cr
   0.0000000000000000    0.0000000000000000    0.0000000000000000 Fe Ni Cr
   0.5000000000000000    0.5000000000000000    0.0000000000000000 Fe Ni Cr
